200
100
99
97
97
96
96
95
93
92
92
92
92
92
92
92
91
91
90
89
88
87
87
87
86
85
85
84
84
84
83
83
83
83
83
83
82
81
80
79
78
78
78
78
77
77
76
76
76
75
75
75
74
73
72
71
71
70
70
69
69
68
68
67
66
66
65
65
63
63
63
63
62
61
61
61
59
58
58
58
58
58
58
58
58
57
56
56
56
54
53
52
52
52
51
50
50
50
50
50
49
49
48
48
48
48
48
47
47
46
45
45
44
43
43
43
43
43
43
42
41
41
40
40
38
38
37
37
37
37
36
36
36
35
35
34
33
32
32
31
31
29
29
29
28
27
27
27
26
26
25
24
24
23
22
22
22
21
21
21
20
20
19
18
18
18
18
17
16
16
16
16
15
15
14
14
14
13
13
12
12
11
11
11
11
8
8
7
6
5
3
3
2
2
2
2
2
2
1
1
1
1
